p cnf 77 1090
-40 0
36 0
36 0
36 0
-36 0
-36 0
36 0
-34 0
-34 0
34 0
34 0
51 0
25 -34 51 0
-51 0
-25 0
34 0
61 0
-46 0
46 0
2 -58 0
-2 -58 0
-2 58 0
2 58 0
2 0
-2 0
-58 0
58 0
-18 0
-18 0
18 0
18 0
34 0
-34 0
8 0
34 0
-8 0
-34 0
1 0
-1 0
1 0
-1 0
19 0
-19 0
19 0
-19 0
59 0
1 56 59 0
-59 0
-56 0
-1 0
46 0
-46 0
60 -63 -66 -77 0
-21 0
-21 0
-60 0
21 0
77 0
21 0
21 0
63 0
66 0
46 0
-46 0
-46 0
46 0
-21 0
21 0
-54 0
54 0
59 0
-18 0
-18 0
18 0
18 0
54 70 0
-54 70 0
-54 0
54 0
-70 0
-15 0
15 0
15 0
-1 0
1 0
1 0
-1 0
27 0
-15 0
27 0
-27 0
-27 0
75 0
14 27 75 0
-75 0
-14 0
-27 0
72 0
-72 0
-21 0
-19 62 0
21 0
21 0
62 0
-21 0
-62 0
-19 -62 0
-21 0
21 0
-62 0
62 0
19 0
8 0
-6 0
-8 0
6 0
-6 0
6 0
6 31 0
-6 -31 0
6 -31 0
-6 31 0
8 0
-8 0
10 0
10 0
45 -70 0
-45 0
-45 -70 0
-10 0
-45 0
-10 0
45 0
-27 0
27 0
27 0
-27 0
48 0
45 0
48 0
-48 0
70 0
-48 0
70 0
-70 0
70 0
-70 0
65 0
-33 48 65 0
-65 0
74 0
33 0
-74 0
-48 0
74 0
-74 0
29 0
-50 0
-21 0
21 0
21 0
-21 0
-50 0
50 0
50 0
11 26 0
14 0
-14 0
-14 0
14 0
-40 0
40 0
40 0
-40 0
18 0
-18 0
-22 0
22 0
2 0
8 0
2 0
-8 0
-2 0
-2 0
2 0
2 0
-2 0
-2 0
35 0
-35 0
62 0
53 62 -67 0
-62 0
-53 0
8 0
67 0
-8 0
36 0
-36 0
35 0
35 0
-35 0
-35 0
26 29 0
29 0
-29 0
-26 0
-46 0
-46 0
46 0
46 0
-14 0
14 0
46 0
-14 0
14 0
53 0
17 0
33 0
17 53 0
33 0
-53 0
-33 0
-33 0
-17 0
-56 0
56 0
-56 0
53 0
-53 0
-56 0
-56 0
56 0
56 0
17 0
-17 0
56 0
-22 0
22 0
22 0
-22 0
27 0
-74 0
-67 -71 -74 0
74 0
67 0
71 0
-27 0
27 -35 0
35 0
-35 0
-21 33 0
-21 0
33 0
21 0
-33 0
-2 0
2 0
2 0
-2 0
18 -27 0
-27 0
18 0
27 0
-18 0
71 0
-71 0
8 0
71 0
-8 0
-71 0
-22 0
22 0
22 0
8 -36 0
-22 0
8 0
-36 0
-8 0
36 0
-1 -22 0
-1 22 0
8 0
1 22 0
-8 0
1 -22 0
-14 0
-1 0
-14 0
-22 0
14 0
14 0
22 0
1 0
19 0
22 0
-19 0
22 0
22 0
-22 0
-22 0
-22 0
25 0
-25 0
-25 0
25 0
-52 0
52 0
-73 0
73 0
76 0
-76 0
76 0
-76 0
-56 0
-56 0
56 0
56 0
13 0
-13 0
16 23 -31 -55 0
31 0
-40 0
40 0
40 0
-40 0
-23 0
-16 0
55 0
-73 0
-54 57 -73 0
73 0
54 0
-57 0
-25 0
-25 0
25 0
25 0
-52 0
-47 -52 57 0
52 0
-10 0
47 0
10 0
10 0
-10 0
-57 0
-40 0
-40 0
40 0
8 0
40 0
-8 0
-50 0
50 0
45 -47 -76 0
-45 0
76 0
47 0
45 0
-50 0
8 0
50 0
-8 0
29 0
-29 0
-29 0
29 0
16 0
16 0
-16 0
-16 0
4 0
-4 0
4 0
-4 0
24 0
-24 0
-24 0
24 0
43 0
-51 0
51 0
43 0
-51 0
-42 0
51 0
42 0
8 0
-8 0
75 0
-13 0
13 0
-75 0
13 0
-38 -41 0
38 0
38 -41 0
-38 0
-38 0
38 0
41 0
37 0
-37 0
-43 0
28 0
28 0
-48 0
48 0
48 0
-48 0
-37 0
37 0
28 0
-28 0
28 0
-28 0
65 0
-65 0
-42 0
42 0
-34 0
8 0
34 0
-8 0
34 41 0
34 0
-34 41 0
-34 0
-41 0
-37 0
13 0
37 0
-13 0
28 0
-28 0
-13 0
13 0
59 0
-59 0
28 0
-28 0
28 0
-28 0
-23 0
23 0
-23 0
23 0
-42 0
-48 0
42 0
48 0
55 0
-55 0
4 -39 0
-4 -39 0
-4 39 0
4 39 0
4 0
-4 0
-39 0
39 0
55 0
-55 0
8 0
-23 0
-8 0
23 0
8 0
-8 0
12 0
-12 0
3 -7 0
3 7 0
-3 7 0
12 0
-3 -7 0
-3 0
-12 0
-7 0
3 0
7 0
55 0
-55 0
49 0
-49 0
6 -44 0
-6 -44 0
-6 44 0
6 44 0
44 0
-44 0
6 0
-6 0
-8 0
8 0
8 0
-8 0
32 -60 0
32 60 0
-32 60 0
-32 -60 0
-60 0
60 0
32 0
-32 0
55 0
-55 0
-23 0
23 0
43 0
-43 0
-42 0
42 0
-13 0
13 0
37 0
-37 0
28 0
-28 0
37 0
-37 0
28 0
-28 0
-13 0
-13 0
13 0
13 0
37 0
37 0
-37 0
-37 0
28 0
-28 0
-20 0
20 0
-42 0
-20 0
42 0
20 0
-13 0
13 0
-13 0
13 0
37 0
5 7 0
-37 0
-7 0
-5 0
28 0
-28 0
16 0
-16 0
-16 0
16 0
6 0
-6 31 0
-6 -31 0
6 0
-3 0
-15 20 0
-15 -43 0
-5 -43 0
-3 0
-5 20 0
-20 43 0
5 15 0
6 0
-31 0
3 0
37 -52 0
-49 73 0
-49 -52 0
37 73 0
-37 0
52 -73 0
-37 49 0
37 0
11 -13 0
28 0
-28 0
31 -44 0
-31 0
44 0
-42 0
-4 -16 0
42 0
16 0
4 0
-23 0
23 0
-4 30 0
3 0
4 0
55 0
-30 0
-55 0
-6 31 0
3 -26 0
-3 0
26 0
-23 0
-6 -15 0
15 0
6 0
15 0
23 0
-3 0
3 -15 0
-6 -11 0
-6 -11 0
-42 0
6 0
42 0
3 5 0
-3 0
-5 0
11 0
5 -6 0
-5 0
6 0
3 -11 0
-3 0
11 0
6 0
9 -69 0
-9 69 0
-9 -69 0
-6 -11 0
9 69 0
9 0
-9 0
-69 0
69 0
11 0
3 -15 0
-3 0
15 0
-3 0
-5 0
3 5 0
-6 -11 0
6 0
11 0
12 0
-4 -15 0
15 0
-12 0
4 0
-13 0
-4 -11 0
4 0
12 0
11 0
-12 0
13 0
-30 0
5 -6 0
-5 0
6 0
-4 -26 0
4 0
55 0
-55 0
26 0
28 0
3 30 0
-30 0
-3 0
-23 0
23 0
-6 -26 0
6 0
26 0
-28 30 0
-42 0
42 0
4 0
-4 29 0
-29 0
3 29 0
-3 0
-29 0
-13 0
-6 30 0
-30 0
6 0
13 0
13 0
-13 0
13 0
-16 -44 0
21 0
67 0
21 67 0
16 0
-67 0
-21 0
44 0
-11 0
48 0
-33 0
-33 48 0
49 0
-48 0
33 0
-49 0
29 -44 0
44 0
-29 0
49 0
-26 -29 0
-49 0
-29 0
-11 -29 0
-12 15 -37 42 0
37 0
-15 0
12 0
-42 0
12 -16 31 0
12 0
-12 0
-12 0
16 0
5 -42 0
-31 0
42 0
-67 0
-8 0
-8 -67 0
-5 0
8 0
67 0
55 0
-15 -44 0
15 0
44 0
-55 0
-23 0
-11 -44 0
44 0
23 0
-4 5 0
-5 0
4 0
11 0
-26 -44 0
44 0
26 0
64 77 0
30 -44 0
-30 0
44 0
-64 77 0
77 0
49 0
64 -77 0
-49 0
-64 -77 0
-77 0
-64 0
-4 31 0
-31 0
4 0
64 0
12 0
-12 0
16 0
-3 0
3 -16 0
-6 29 0
6 0
55 0
-29 0
-55 0
-30 0
30 0
-28 0
28 0
28 0
-28 0
-23 55 0
23 0
-55 0
49 0
49 0
-49 0
49 0
-49 0
-13 0
31 32 0
-31 0
-32 0
12 0
16 0
-9 0
-12 0
9 -16 0
-28 0
9 -26 0
26 0
-9 0
66 72 0
-66 72 0
-66 -72 0
49 0
66 -72 0
-49 0
66 0
-66 0
-15 -39 0
15 0
39 0
72 0
-72 0
-64 0
64 0
-11 -39 0
11 0
39 0
5 -44 0
-5 0
44 0
9 -15 0
9 -15 0
15 0
15 0
-9 0
-9 0
63 0
63 0
-63 0
-63 0
49 0
-49 0
9 -11 0
11 0
12 0
-9 0
-12 0
39 0
-5 0
5 -39 0
-26 -39 0
26 0
39 0
8 0
8 0
-8 0
-8 0
-9 0
9 30 0
-30 0
30 -39 0
-30 0
39 0
9 29 0
-29 0
-9 0
29 -39 0
-29 0
39 0
-8 0
8 0
8 0
-8 0
49 0
-49 0
16 0
-32 0
-16 32 0
-13 0
22 0
-22 0
29 32 0
-32 0
-29 0
13 0
30 32 0
-30 0
-32 0
-26 32 0
-32 0
26 0
39 0
-39 0
39 0
-39 0
-26 0
26 0
26 0
-26 0
9 -15 0
15 0
-9 0
-30 0
-30 0
30 0
-29 0
30 0
-29 0
-15 32 0
-32 0
15 0
44 0
-44 0
44 0
-44 0
29 0
29 0
5 9 0
-5 0
-9 0
-11 32 0
-32 0
11 0
30 0
-30 0
-30 0
30 0
7 29 0
-7 0
-29 0
7 30 0
-30 0
-7 0
-32 0
32 0
-32 0
32 0
-11 0
11 0
11 0
-11 0
15 0
15 0
-15 0
-15 0
26 0
26 0
-26 0
-26 0
-9 0
9 0
-9 0
9 0
7 -11 0
-7 0
11 0
5 32 0
-5 0
-32 0
7 -15 0
15 0
-7 0
7 -26 0
-7 0
26 0
7 -16 0
16 0
-7 0
7 31 0
-31 0
-7 0
9 31 0
-31 0
-9 0
-16 -39 0
16 0
39 0
-69 0
-69 0
69 0
69 0
41 0
-41 0
41 0
-41 0
-24 -38 0
-24 38 0
24 -38 0
24 38 0
38 0
-38 0
24 0
-24 0
-20 0
20 0
31 -39 0
-31 0
39 0
-35 0
-7 0
7 0
-7 0
7 0
-5 0
5 0
11 0
11 0
-11 0
-11 0
5 0
-5 0
5 0
-5 0
-5 0
-3 0
-31 0
3 31 0
5 0
-6 -16 0
16 0
6 0
-46 57 0
-46 -57 0
46 -57 0
46 57 0
46 0
-46 0
57 0
-57 0
-33 0
33 0
33 0
-33 0
46 0
-46 0
-46 0
46 0
25 0
-25 0
-25 65 0
25 65 0
25 0
-25 0
-65 0
-61 -75 0
-75 0
-61 0
75 0
61 0
35 0
35 0
-35 0
61 0
68 0
61 68 0
68 0
50 53 68 0
-61 0
-68 0
-53 0
-50 0
-68 0
-17 0
-17 0
17 0
17 0
58 0
-17 58 -76 0
-58 0
17 0
76 0
-10 -47 0
-10 47 0
10 47 0
10 -47 0
-47 0
47 0
-10 0
10 0
17 0
-17 0
-17 0
-50 0
-36 0
-50 0
-36 0
36 0
50 0
-68 0
59 -68 0
17 0
-59 0
68 0
50 0
-36 40 61 0
-61 0
